sat
(= |goto_symex::&92;guard#1| false)
(= |goto_symex::&92;guard#2| false)
(= |goto_symex::&92;guard#3| false)
(= |goto_symex::&92;guard#4| false)
(= |goto_symex::&92;guard#5| false)
(= |goto_symex::&92;guard#6| false)
(= |goto_symex::&92;guard#7| false)
(= |goto_symex::&92;guard#8| false)
(= |goto_symex::&92;guard#9| false)
(= |goto_symex::&92;guard#10| false)
(= |goto_symex::&92;guard#11| false)
(= |goto_symex::&92;guard#12| false)
(= |goto_symex::&92;guard#13| false)
(= |goto_symex::&92;guard#14| false)
(= |goto_symex::&92;guard#15| false)
(= |goto_symex::&92;guard#16| false)
(= |goto_symex::&92;guard#17| false)
(= |goto_symex::&92;guard#18| false)
(= |goto_symex::&92;guard#19| false)
(= |goto_symex::&92;guard#20| false)
(= |goto_symex::&92;guard#21| false)
(= |goto_symex::&92;guard#22| false)
(= |goto_symex::&92;guard#23| false)
(= |goto_symex::&92;guard#24| false)
(= |goto_symex::&92;guard#25| false)
(= |goto_symex::&92;guard#26| false)
(= |goto_symex::&92;guard#27| false)
(= |goto_symex::&92;guard#28| false)
(= |goto_symex::&92;guard#29| false)
(= |goto_symex::&92;guard#30| false)
(= |goto_symex::&92;guard#31| false)
(= |goto_symex::&92;guard#32| false)
(= |goto_symex::&92;guard#33| false)
(= |goto_symex::&92;guard#34| false)
(= |goto_symex::&92;guard#35| false)
(= |goto_symex::&92;guard#36| false)
(= |goto_symex::&92;guard#37| false)
(= |goto_symex::&92;guard#38| false)
(= |goto_symex::&92;guard#39| false)
(= |goto_symex::&92;guard#40| false)
(= |goto_symex::&92;guard#41| false)
(= |goto_symex::&92;guard#42| false)
(= |goto_symex::&92;guard#43| false)
(= |goto_symex::&92;guard#44| false)
(= |goto_symex::&92;guard#45| false)
(= |goto_symex::&92;guard#46| false)
(= |goto_symex::&92;guard#47| false)
(= |goto_symex::&92;guard#48| false)
(= |goto_symex::&92;guard#49| false)
(= |goto_symex::&92;guard#50| false)
(= |goto_symex::&92;guard#51| false)
(= |goto_symex::&92;guard#52| false)
(= |goto_symex::&92;guard#53| false)
(= |goto_symex::&92;guard#54| false)
(= |goto_symex::&92;guard#55| false)
(= |goto_symex::&92;guard#56| false)
(= |goto_symex::&92;guard#57| false)
(= |goto_symex::&92;guard#58| false)
(= |goto_symex::&92;guard#59| false)
(= |goto_symex::&92;guard#60| false)
(= |goto_symex::&92;guard#61| false)
(= |goto_symex::&92;guard#62| false)
(= |goto_symex::&92;guard#63| false)
(= |goto_symex::&92;guard#64| false)
(= |goto_symex::&92;guard#65| false)
(= |goto_symex::&92;guard#66| false)
(= |goto_symex::&92;guard#67| false)
(= |goto_symex::&92;guard#68| false)
(= |goto_symex::&92;guard#69| false)
(= |goto_symex::&92;guard#70| false)
(= |goto_symex::&92;guard#71| false)
(= |goto_symex::&92;guard#72| false)
(= |goto_symex::&92;guard#73| false)
(= |goto_symex::&92;guard#74| false)
(= |goto_symex::&92;guard#75| false)
(= |goto_symex::&92;guard#76| false)
(= |goto_symex::&92;guard#77| false)
(= |goto_symex::&92;guard#78| false)
(= |goto_symex::&92;guard#79| false)
(= |goto_symex::&92;guard#80| false)
(= |goto_symex::&92;guard#81| false)
(= |goto_symex::&92;guard#82| false)
(= |goto_symex::&92;guard#83| false)
(= |goto_symex::&92;guard#84| false)
(= |goto_symex::&92;guard#85| false)
(= |goto_symex::&92;guard#86| false)
(= |goto_symex::&92;guard#87| false)
(= |goto_symex::&92;guard#88| false)
(= |goto_symex::&92;guard#89| false)
(= |goto_symex::&92;guard#90| false)
(= |goto_symex::&92;guard#91| false)
(= |goto_symex::&92;guard#92| false)
(= |goto_symex::&92;guard#93| false)
(= |goto_symex::&92;guard#94| false)
(= |goto_symex::&92;guard#95| false)
(= |goto_symex::&92;guard#96| false)
(= |goto_symex::&92;guard#97| false)
(= |goto_symex::&92;guard#98| false)
(= |goto_symex::&92;guard#99| false)
(= |goto_symex::&92;guard#100| false)
(= |goto_symex::&92;guard#101| false)
(= |goto_symex::&92;guard#102| false)
(= |goto_symex::&92;guard#103| false)
(= |goto_symex::&92;guard#104| false)
(= |goto_symex::&92;guard#105| false)
(= |goto_symex::&92;guard#106| false)
(= |goto_symex::&92;guard#107| false)
(= |goto_symex::&92;guard#108| false)
(= |goto_symex::&92;guard#109| false)
(= |goto_symex::&92;guard#110| false)
(= |goto_symex::&92;guard#111| false)
(= |goto_symex::&92;guard#112| false)
(= |goto_symex::&92;guard#113| false)
(= |goto_symex::&92;guard#114| false)
(= |goto_symex::&92;guard#115| false)
(= |goto_symex::&92;guard#116| false)
(= |goto_symex::&92;guard#117| false)
(= |goto_symex::&92;guard#118| false)
(= |goto_symex::&92;guard#119| false)
(= |goto_symex::&92;guard#120| false)
(= |goto_symex::&92;guard#121| false)
(= |goto_symex::&92;guard#122| false)
(= |goto_symex::&92;guard#123| false)
(= |goto_symex::&92;guard#124| false)
(= |goto_symex::&92;guard#125| false)
(= |goto_symex::&92;guard#126| false)
(= |goto_symex::&92;guard#127| false)
(= |goto_symex::&92;guard#128| false)
(= |goto_symex::&92;guard#129| false)
(= |goto_symex::&92;guard#130| false)
(= |goto_symex::&92;guard#131| false)
(= |goto_symex::&92;guard#132| false)
(= |goto_symex::&92;guard#133| false)
(= |goto_symex::&92;guard#134| false)
(= |goto_symex::&92;guard#135| false)
(= |goto_symex::&92;guard#136| false)
(= |goto_symex::&92;guard#137| false)
(= |goto_symex::&92;guard#138| false)
(= |goto_symex::&92;guard#139| false)
(= |goto_symex::&92;guard#140| false)
(= |goto_symex::&92;guard#141| false)
(= |goto_symex::&92;guard#142| false)
(= |goto_symex::&92;guard#143| false)
(= |goto_symex::&92;guard#144| false)
(= |goto_symex::&92;guard#145| false)
(= |goto_symex::&92;guard#146| false)
(= |goto_symex::&92;guard#147| false)
(= |goto_symex::&92;guard#148| false)
(= |goto_symex::&92;guard#149| false)
(= |goto_symex::&92;guard#150| false)
(= |goto_symex::&92;guard#151| false)
(= |goto_symex::&92;guard#152| false)
(= |goto_symex::&92;guard#153| false)
(= |goto_symex::&92;guard#154| false)
(= |goto_symex::&92;guard#155| false)
(= |goto_symex::&92;guard#156| false)
(= |goto_symex::&92;guard#157| false)
(= |goto_symex::&92;guard#158| false)
(= |goto_symex::&92;guard#159| false)
(= |goto_symex::&92;guard#160| false)
(= |goto_symex::&92;guard#161| false)
(= |goto_symex::&92;guard#162| false)
(= |goto_symex::&92;guard#163| false)
(= |goto_symex::&92;guard#164| false)
(= |goto_symex::&92;guard#165| false)
(= |goto_symex::&92;guard#166| false)
(= |goto_symex::&92;guard#167| false)
(= |goto_symex::&92;guard#168| false)
(= |goto_symex::&92;guard#169| false)
(= |goto_symex::&92;guard#170| false)
(= |goto_symex::&92;guard#171| false)
(= |goto_symex::&92;guard#172| false)
(= |goto_symex::&92;guard#173| false)
(= |goto_symex::&92;guard#174| false)
(= |goto_symex::&92;guard#175| false)
(= |goto_symex::&92;guard#176| false)
(= |goto_symex::&92;guard#177| false)
(= |goto_symex::&92;guard#178| false)
(= |goto_symex::&92;guard#179| false)
(= |goto_symex::&92;guard#180| false)
(= |goto_symex::&92;guard#181| false)
(= |goto_symex::&92;guard#182| false)
(= |goto_symex::&92;guard#183| false)
(= |goto_symex::&92;guard#184| false)
(= |goto_symex::&92;guard#185| false)
(= |goto_symex::&92;guard#186| false)
(= |goto_symex::&92;guard#187| false)
(= |goto_symex::&92;guard#188| false)
(= |goto_symex::&92;guard#189| false)
(= |goto_symex::&92;guard#190| false)
(= |goto_symex::&92;guard#191| false)
(= |goto_symex::&92;guard#192| false)
(= |goto_symex::&92;guard#193| false)
(= |goto_symex::&92;guard#194| false)
(= |goto_symex::&92;guard#195| false)
(= |goto_symex::&92;guard#196| false)
(= |goto_symex::&92;guard#197| false)
(= |goto_symex::&92;guard#198| false)
(= |goto_symex::&92;guard#199| false)
(= |goto_symex::&92;guard#200| false)
(= |goto_symex::&92;guard#201| false)
(= |goto_symex::&92;guard#202| false)
(= |goto_symex::&92;guard#203| false)
(= |goto_symex::&92;guard#204| false)
(= |goto_symex::&92;guard#205| false)
(= |goto_symex::&92;guard#206| false)
(= |goto_symex::&92;guard#207| false)
(= |goto_symex::&92;guard#208| false)
(= |goto_symex::&92;guard#209| false)
(= |goto_symex::&92;guard#210| false)
(= |goto_symex::&92;guard#211| false)
(= |goto_symex::&92;guard#212| false)
(= |goto_symex::&92;guard#213| false)
(= |goto_symex::&92;guard#214| false)
(= |goto_symex::&92;guard#215| false)
(= |goto_symex::&92;guard#216| false)
(= |goto_symex::&92;guard#217| false)
(= |goto_symex::&92;guard#218| false)
(= |goto_symex::&92;guard#219| false)
(= |goto_symex::&92;guard#220| false)
(= |goto_symex::&92;guard#221| false)
(= |goto_symex::&92;guard#222| false)
(= |goto_symex::&92;guard#223| false)
(= |goto_symex::&92;guard#224| false)
(= |goto_symex::&92;guard#225| false)
(= |goto_symex::&92;guard#226| false)
(= |goto_symex::&92;guard#227| false)
(= |goto_symex::&92;guard#228| false)
(= |goto_symex::&92;guard#229| false)
(= |goto_symex::&92;guard#230| false)
(= |goto_symex::&92;guard#231| false)
(= |goto_symex::&92;guard#232| false)
(= |goto_symex::&92;guard#233| false)
(= |goto_symex::&92;guard#234| false)
(= |goto_symex::&92;guard#235| false)
(= |goto_symex::&92;guard#236| false)
(= |goto_symex::&92;guard#237| false)
(= |goto_symex::&92;guard#238| false)
(= |goto_symex::&92;guard#239| false)
(= |goto_symex::&92;guard#240| false)
(= |goto_symex::&92;guard#241| false)
(= |goto_symex::&92;guard#242| false)
(= |goto_symex::&92;guard#243| false)
(= |goto_symex::&92;guard#244| false)
(= |goto_symex::&92;guard#245| false)
(= |goto_symex::&92;guard#246| false)
(= |goto_symex::&92;guard#247| false)
(= |goto_symex::&92;guard#248| false)
(= |goto_symex::&92;guard#249| false)
(= |goto_symex::&92;guard#250| false)
(= |goto_symex::&92;guard#251| false)
(= |goto_symex::&92;guard#252| false)
(= |goto_symex::&92;guard#253| false)
(= |goto_symex::&92;guard#254| false)
(= |goto_symex::&92;guard#255| false)
(= |goto_symex::&92;guard#256| false)
(= |goto_symex::&92;guard#257| true)
(= |goto_symex::&92;guard#258| false)
(= |goto_symex::&92;guard#259| false)
(= |goto_symex::&92;guard#260| false)
(= |goto_symex::&92;guard#261| false)
(= |goto_symex::&92;guard#262| true)
(= |goto_symex::&92;guard#263| false)
(= |goto_symex::&92;guard#264| false)
(= |goto_symex::&92;guard#265| false)
(= |goto_symex::&92;guard#266| false)
(= |goto_symex::&92;guard#267| true)
(= |goto_symex::&92;guard#268| false)
(= |goto_symex::&92;guard#269| false)
(= |goto_symex::&92;guard#270| false)
(= |goto_symex::&92;guard#271| false)
(= |goto_symex::&92;guard#272| true)
(= |goto_symex::&92;guard#273| false)
(= |goto_symex::&92;guard#274| false)
(= |goto_symex::&92;guard#275| false)
(= |goto_symex::&92;guard#276| false)
(= |goto_symex::&92;guard#277| false)
(= |goto_symex::&92;guard#278| true)
(= |goto_symex::&92;guard#279| false)
(= |goto_symex::&92;guard#280| false)
(= |goto_symex::&92;guard#281| false)
(= |goto_symex::&92;guard#282| false)
(= |goto_symex::&92;guard#283| true)
(= |goto_symex::&92;guard#284| false)
(= |goto_symex::&92;guard#285| false)
(= |goto_symex::&92;guard#286| false)
(= |goto_symex::&92;guard#287| false)
(= |goto_symex::&92;guard#288| true)
(= |goto_symex::&92;guard#289| false)
(= |goto_symex::&92;guard#290| false)
(= |goto_symex::&92;guard#291| false)
(= |goto_symex::&92;guard#292| false)
(= |goto_symex::&92;guard#293| true)
(= |goto_symex::&92;guard#294| false)
(= |goto_symex::&92;guard#295| false)
(= |goto_symex::&92;guard#296| false)
(= |goto_symex::&92;guard#297| false)
(= |goto_symex::&92;guard#298| false)
(= |goto_symex::&92;guard#299| true)
(= |goto_symex::&92;guard#300| false)
(= |goto_symex::&92;guard#301| false)
(= |goto_symex::&92;guard#302| false)
(= |goto_symex::&92;guard#303| false)
(= |goto_symex::&92;guard#304| true)
(= |goto_symex::&92;guard#305| false)
(= |goto_symex::&92;guard#306| false)
(= |goto_symex::&92;guard#307| false)
(= |goto_symex::&92;guard#308| false)
(= |goto_symex::&92;guard#309| true)
(= |goto_symex::&92;guard#310| false)
(= |goto_symex::&92;guard#311| false)
(= |goto_symex::&92;guard#312| false)
(= |goto_symex::&92;guard#313| false)
(= |goto_symex::&92;guard#314| true)
(= |goto_symex::&92;guard#315| false)
(= |goto_symex::&92;guard#316| false)
(= |goto_symex::&92;guard#317| false)
(= |goto_symex::&92;guard#318| false)
(= |goto_symex::&92;guard#319| false)
(= |goto_symex::&92;guard#320| true)
(= |goto_symex::&92;guard#321| false)
(= |goto_symex::&92;guard#322| false)
(= |goto_symex::&92;guard#323| false)
(= |goto_symex::&92;guard#324| false)
(= |goto_symex::&92;guard#325| true)
(= |goto_symex::&92;guard#326| false)
(= |goto_symex::&92;guard#327| false)
(= |goto_symex::&92;guard#328| false)
(= |goto_symex::&92;guard#329| false)
(= |goto_symex::&92;guard#330| true)
(= |goto_symex::&92;guard#331| false)
(= |goto_symex::&92;guard#332| false)
(= |goto_symex::&92;guard#333| false)
(= |goto_symex::&92;guard#334| false)
(= |goto_symex::&92;guard#335| true)
(= |goto_symex::&92;guard#336| false)
(= |goto_symex::&92;guard#337| false)
(= |goto_symex::&92;guard#338| false)
(= |goto_symex::&92;guard#339| false)
(= |goto_symex::&92;guard#340| true)
(= |memory_model::choice_rf_1_0_0_8_T_0| false)
(= |memory_model::choice_rf_1_0_2_1_T_1| false)
(= |memory_model::choice_rf_1_0_3_1_T_2| true)
(= |memory_model::choice_rf_1_0_4_1_T_3| false)
(= |memory_model::choice_rf_2_0_0_8_T_4| true)
(= |memory_model::choice_rf_2_0_1_1_T_5| false)
(= |memory_model::choice_rf_2_0_3_1_T_6| false)
(= |memory_model::choice_rf_2_0_4_1_T_7| false)
(= |memory_model::choice_rf_3_0_0_8_T_8| true)
(= |memory_model::choice_rf_3_0_1_1_T_9| false)
(= |memory_model::choice_rf_3_0_2_1_T_10| false)
(= |memory_model::choice_rf_3_0_4_1_T_11| false)
(= |memory_model::choice_rf_4_0_0_8_T_12| false)
(= |memory_model::choice_rf_4_0_1_1_T_13| false)
(= |memory_model::choice_rf_4_0_2_1_T_14| false)
(= |memory_model::choice_rf_4_0_3_1_T_15| false)
(= |memory_model::choice_rf_0_13_0_6_T_16| false)
(= |memory_model::choice_rf_0_13_0_10_T_17| true)
(= |memory_model::choice_rf_0_17_0_6_T_18| false)
(= |memory_model::choice_rf_0_17_0_10_T_19| false)
(= |memory_model::choice_rf_0_17_0_14_T_20| true)
(= |memory_model::choice_rf_0_21_0_6_T_21| false)
(= |memory_model::choice_rf_0_21_0_10_T_22| false)
(= |memory_model::choice_rf_0_21_0_14_T_23| false)
(= |memory_model::choice_rf_0_21_0_18_T_24| true)
(= |memory_model::choice_ws-ext_0_8_1_1_T_25| true)
(= |memory_model::choice_ws-ext_0_8_2_1_T_26| true)
(= |memory_model::choice_ws-ext_0_8_3_1_T_27| true)
(= |memory_model::choice_ws-ext_0_8_4_1_T_28| true)
(= |memory_model::choice_ws-ext_1_1_2_1_T_29| false)
(= |memory_model::choice_ws-ext_1_1_3_1_T_30| false)
(= |memory_model::choice_ws-ext_1_1_4_1_T_31| false)
(= |memory_model::choice_ws-ext_2_1_3_1_T_32| true)
(= |memory_model::choice_ws-ext_2_1_4_1_T_33| false)
(= |memory_model::choice_ws-ext_3_1_4_1_T_34| false)
(= |__CPROVER_next_thread_id#3| #b00000000000000000000000000000001)
(= |__CPROVER_next_thread_id#6| #b00000000000000000000000000000010)
(= |__CPROVER_next_thread_id#9| #b00000000000000000000000000000011)
(= |pthread_create::1::this_thread_id!1@0#0| #b00000000000000000000000000000000)
(= |nondet_symex::nondet0| #b00000000000000000000000000000000)
(= |nondet_symex::nondet1| #b00000000000000000000000000000000)
(= |nondet_symex::nondet2| #b00000000000000000000000000000000)
(= |pthread_create::1::this_thread_id!2@0#0| #b00000000000000000000000000000000)
(= |nondet_symex::nondet3| #b00000000000000000000000000000000)
(= |nondet_symex::nondet4| #b00000000000000000000000000000000)
(= |nondet_symex::nondet5| #b00000000000000000000000000000000)
(= |pthread_create::1::this_thread_id!3@0#0| #b10000000000000000000000000000000)
(= |nondet_symex::nondet6| #b00000000000000000000000000000000)
(= |nondet_symex::nondet7| #b00000000000000000000000000000000)
(= |nondet_symex::nondet8| #b00000000000000000000000000000000)
(= |pthread_create::1::this_thread_id!4@0#0| #b00000000000000000000000000000000)
(= |nondet_symex::nondet9| #b00000000000000000000000000000000)
(= |nondet_symex::nondet10| #b10000000000000000000000000000000)
(= |nondet_symex::nondet11| #b00000000000000000000000000000000)
(= |__CPROVER_threads_exited#1$wclk$8| #b001000)
(= |__CPROVER_threads_exited#2$rclk$8| #b100011)
(= |__CPROVER_threads_exited#5$wclk$8| #b100001)
(= |__CPROVER_threads_exited#7$wclk$8| #b100010)
(= |__CPROVER_threads_exited#9$wclk$8| #b011111)
(= |__CPROVER_threads_exited#4$rclk$8| #b100000)
(= |__CPROVER_threads_exited#3$wclk$8| #b100101)
(= |__CPROVER_threads_exited#6$rclk$8| #b100000)
(= |__CPROVER_threads_exited#8$rclk$8| #b011110)
(= t1$12$spwnclk$8 #b001100)
(= t1$16$spwnclk$8 #b001111)
(= t1$20$spwnclk$8 #b011001)
(= t1$24$spwnclk$8 #b011100)
(= |__CPROVER_dead_object#1$wclk$8| #b000000)
(= |__CPROVER_deallocated#1$wclk$8| #b000001)
(= |__CPROVER_malloc_is_new_array#1$wclk$8| #b000010)
(= |__CPROVER_malloc_object#1$wclk$8| #b000011)
(= |__CPROVER_malloc_size#1$wclk$8| #b000100)
(= |__CPROVER_memory_leak#1$wclk$8| #b000101)
(= |__CPROVER_next_thread_id#1$wclk$8| #b000110)
(= |__CPROVER_pipe_count#1$wclk$8| #b000111)
(= |main::1::t!0@1#1$wclk$8| #b001001)
(= |__CPROVER_next_thread_id#2$wclk$8| #b001010)
(= |main::1::t!0@1#2$wclk$8| #b001011)
(= |__CPROVER_next_thread_id#3$rclk$8| #b001101)
(= |__CPROVER_next_thread_id#5$wclk$8| #b001101)
(= |main::1::t!0@1#3$wclk$8| #b001110)
(= |__CPROVER_next_thread_id#6$rclk$8| #b010011)
(= |__CPROVER_next_thread_id#8$wclk$8| #b010011)
(= |main::1::t!0@1#4$wclk$8| #b010100)
(= |__CPROVER_next_thread_id#9$rclk$8| #b011010)
(= |__CPROVER_next_thread_id#11$wclk$8| #b011010)
(= |main::1::t!0@1#5$wclk$8| #b011011)
(= array_of.0 @fun_8)
(= |__CPROVER_threads_exited#2| @fun_7)
(= |__CPROVER_threads_exited#4| @fun_8)
(= |__CPROVER_threads_exited#6| @fun_8)
(= |__CPROVER_threads_exited#8| @fun_10)
(function @fun_8
 (type (Array (_ BitVec 32) (_ BitVec 1)))
 (= (@fun_8 #b00000000000000000000000000000000) #b1)
 (default #b0))
(function @fun_7
 (type (Array (_ BitVec 32) (_ BitVec 1)))
 (= (@fun_7 #b00000000000000000000000000000000) #b1)
 (= (@fun_7 #b10000000000000000000000000000000) #b1)
 (default #b0))
(function @fun_10
 (type (Array (_ BitVec 32) (_ BitVec 1)))
 (= (@fun_10 #b00000000000000000000000000000000) #b0)
 (default #b1))

real	0m0.039s
user	0m0.032s
sys	0m0.006s
State: AC Run_time: 0.04079842567443848